
Gurobi 7.0.2 (linux64, Matlab) logging started Sun Sep  2 08:55:46 2018


Gurobi 7.0.2 (linux64) logging started Sun Sep  2 08:55:46 2018

Optimize a model with 167047 rows, 123027 columns and 20177986 nonzeros
Coefficient statistics:
  Matrix range     [1e+00, 1e+03]
  Objective range  [1e+00, 3e+02]
  Bounds range     [1e+00, 1e+00]
  RHS range        [1e+00, 2e+03]
Iteration    Objective       Primal Inf.    Dual Inf.      Time
       0    1.0000000e+00   0.000000e+00   0.000000e+00      1s

Solved in 0 iterations and 0.60 seconds
Optimal objective  1.000000000e+00
